
Gurobi 6.5.2 (linux64) logging started Mon Aug 29 10:57:51 2016

Optimize a model with 21 rows, 33 columns and 71 nonzeros
Coefficient statistics:
  Matrix range    [1e+00, 2e+00]
  Objective range [3e+00, 1e+02]
  Bounds range    [1e+00, 1e+00]
  RHS range       [1e+00, 1e+00]
Found heuristic solution: objective 488
Presolve removed 11 rows and 9 columns
Presolve time: 0.00s
Presolved: 10 rows, 24 columns, 49 nonzeros
Variable types: 0 continuous, 24 integer (24 binary)

Root relaxation: objective 3.530000e+02, 11 iterations, 0.00 seconds

    Nodes    |    Current Node    |     Objective Bounds      |     Work
 Expl Unexpl |  Obj  Depth IntInf | Incumbent    BestBd   Gap | It/Node Time

*    0     0               0     353.0000000  353.00000  0.00%     -    0s

Explored 0 nodes (11 simplex iterations) in 0.00 seconds
Thread count was 8 (of 8 available processors)

Optimal solution found (tolerance 1.00e-04)
Best objective 3.530000000000e+02, best bound 3.530000000000e+02, gap 0.0%
